c "120151.clq"
p edge 138 536
e 1 5
e 1 7
e 1 9
e 1 12
e 1 22
e 1 108
e 1 111
e 2 5
e 2 6
e 2 7
e 2 8
e 2 11
e 2 13
e 2 19
e 2 24
e 2 27
e 2 31
e 2 34
e 2 55
e 2 59
e 2 67
e 2 71
e 2 72
e 2 76
e 2 92
e 3 5
e 3 6
e 3 12
e 3 19
e 3 37
e 3 38
e 3 43
e 3 54
e 3 61
e 3 132
e 4 5
e 4 6
e 4 10
e 4 20
e 4 25
e 4 42
e 4 55
e 4 91
e 4 116
e 4 121
e 4 131
e 5 6
e 5 7
e 5 8
e 5 9
e 5 10
e 5 11
e 5 12
e 5 13
e 5 15
e 5 16
e 5 17
e 5 18
e 5 20
e 5 22
e 5 26
e 5 28
e 5 29
e 5 30
e 5 33
e 5 34
e 5 36
e 5 37
e 5 38
e 5 39
e 5 43
e 5 47
e 5 49
e 5 51
e 5 52
e 5 58
e 5 63
e 5 65
e 5 68
e 5 69
e 5 71
e 5 78
e 5 83
e 5 85
e 5 86
e 5 90
e 5 94
e 5 96
e 5 103
e 5 114
e 5 115
e 5 130
e 5 132
e 5 134
e 6 7
e 6 8
e 6 9
e 6 10
e 6 14
e 6 20
e 6 21
e 6 22
e 6 24
e 6 26
e 6 28
e 6 29
e 6 36
e 6 43
e 6 44
e 6 47
e 6 63
e 6 66
e 6 87
e 6 89
e 6 109
e 6 124
e 6 127
e 6 131
e 6 134
e 6 136
e 6 137
e 7 8
e 7 9
e 7 13
e 7 15
e 7 16
e 7 17
e 7 18
e 7 43
e 7 44
e 7 45
e 7 49
e 7 51
e 7 60
e 7 86
e 7 98
e 7 112
e 7 119
e 7 136
e 8 10
e 8 11
e 8 13
e 8 14
e 8 16
e 8 18
e 8 21
e 8 26
e 8 35
e 8 39
e 8 41
e 8 51
e 8 54
e 8 55
e 8 62
e 8 72
e 8 74
e 8 82
e 8 96
e 8 118
e 8 120
e 8 124
e 9 12
e 9 17
e 9 22
e 9 27
e 9 30
e 9 35
e 9 36
e 9 38
e 9 41
e 9 57
e 9 73
e 9 77
e 9 78
e 9 81
e 9 85
e 9 88
e 9 89
e 9 95
e 9 98
e 9 126
e 9 128
e 10 11
e 10 15
e 10 18
e 10 20
e 10 23
e 10 25
e 10 27
e 10 28
e 10 29
e 10 48
e 10 52
e 10 55
e 10 61
e 10 74
e 10 77
e 10 91
e 10 92
e 10 99
e 10 129
e 11 21
e 11 37
e 11 58
e 11 70
e 11 96
e 11 137
e 12 14
e 12 19
e 12 23
e 12 30
e 12 33
e 12 45
e 12 48
e 12 62
e 12 63
e 12 98
e 12 108
e 12 111
e 12 121
e 12 135
e 13 14
e 13 21
e 13 23
e 13 35
e 13 46
e 13 50
e 13 56
e 13 57
e 13 60
e 13 96
e 13 101
e 13 125
e 13 135
e 13 137
e 14 15
e 14 16
e 14 19
e 14 32
e 14 33
e 14 36
e 14 41
e 14 49
e 14 52
e 14 53
e 14 66
e 14 68
e 14 79
e 14 80
e 14 89
e 14 97
e 14 99
e 14 107
e 14 114
e 14 133
e 15 59
e 15 75
e 15 86
e 15 126
e 15 138
e 16 17
e 16 24
e 16 28
e 16 31
e 16 39
e 16 64
e 16 69
e 16 70
e 16 76
e 16 90
e 16 101
e 16 121
e 17 23
e 17 31
e 17 32
e 17 42
e 17 45
e 17 57
e 17 64
e 17 67
e 17 74
e 17 78
e 17 81
e 17 118
e 17 130
e 18 32
e 18 34
e 18 40
e 18 42
e 18 79
e 18 84
e 18 95
e 18 105
e 19 24
e 19 31
e 19 50
e 19 62
e 19 79
e 19 105
e 20 30
e 20 41
e 20 56
e 20 124
e 21 39
e 21 44
e 21 61
e 21 70
e 21 72
e 21 80
e 21 87
e 21 88
e 21 92
e 22 25
e 22 26
e 22 79
e 22 100
e 22 121
e 22 122
e 23 25
e 23 40
e 23 42
e 23 44
e 23 47
e 23 60
e 23 106
e 23 119
e 23 137
e 24 27
e 24 29
e 24 35
e 24 38
e 24 50
e 24 52
e 24 62
e 24 77
e 24 102
e 25 86
e 25 120
e 26 82
e 26 117
e 26 123
e 27 40
e 27 123
e 27 125
e 28 59
e 28 68
e 28 78
e 28 88
e 28 138
e 29 32
e 29 61
e 29 69
e 29 75
e 29 109
e 30 33
e 30 34
e 30 45
e 30 46
e 30 48
e 30 49
e 30 50
e 30 51
e 30 65
e 30 81
e 30 84
e 30 112
e 30 134
e 30 135
e 31 64
e 31 83
e 31 103
e 32 56
e 32 80
e 32 93
e 32 138
e 33 46
e 33 58
e 33 73
e 33 93
e 33 94
e 33 127
e 34 37
e 34 40
e 34 67
e 34 89
e 34 93
e 34 116
e 34 122
e 35 46
e 35 54
e 35 66
e 35 71
e 35 93
e 35 97
e 35 122
e 36 56
e 36 65
e 36 85
e 36 109
e 36 114
e 36 133
e 37 47
e 37 53
e 37 54
e 37 105
e 37 113
e 37 120
e 37 132
e 38 112
e 39 94
e 40 104
e 41 98
e 42 67
e 42 74
e 42 76
e 42 81
e 42 83
e 42 110
e 42 115
e 44 66
e 44 77
e 44 120
e 45 119
e 47 48
e 47 53
e 47 99
e 48 58
e 48 92
e 48 100
e 48 102
e 48 106
e 49 53
e 49 57
e 49 63
e 49 82
e 49 131
e 49 136
e 50 73
e 50 97
e 51 60
e 54 87
e 55 59
e 55 101
e 56 115
e 57 95
e 58 69
e 58 70
e 59 94
e 59 111
e 60 64
e 60 71
e 60 73
e 60 104
e 60 110
e 61 65
e 61 114
e 62 72
e 62 117
e 63 68
e 63 76
e 63 80
e 64 84
e 64 102
e 64 103
e 65 82
e 65 101
e 65 113
e 65 127
e 65 130
e 67 116
e 67 129
e 68 75
e 68 90
e 69 100
e 69 125
e 70 75
e 70 113
e 70 117
e 71 106
e 72 97
e 72 107
e 73 100
e 74 84
e 74 110
e 74 128
e 76 85
e 76 106
e 76 109
e 76 122
e 77 91
e 77 115
e 77 130
e 78 87
e 78 113
e 79 133
e 82 83
e 82 110
e 83 91
e 83 95
e 83 112
e 83 116
e 83 117
e 83 125
e 84 104
e 84 119
e 84 123
e 84 138
e 85 88
e 85 90
e 85 105
e 85 118
e 85 127
e 85 133
e 86 128
e 87 107
e 88 111
e 89 126
e 91 102
e 95 103
e 97 99
e 98 136
e 100 107
e 100 108
e 103 104
e 103 131
e 104 123
e 105 134
e 106 108
e 106 118
e 108 126
e 108 129
e 110 132
e 114 124
e 125 135
e 127 128
e 128 129
